784 1512
1 2 3
1 29 4
2 3 5
2 30 2
3 4 5
3 31 2
4 5 3
4 32 2
5 6 4
5 33 4
6 7 1
6 34 4
7 8 2
7 35 3
8 9 1
8 36 2
9 10 2
9 37 4
10 11 1
10 38 2
11 12 2
11 39 4
12 13 4
12 40 5
13 14 5
13 41 5
14 15 5
14 42 5
15 16 4
15 43 3
16 17 1
16 44 1
17 18 4
17 45 5
18 19 5
18 46 3
19 20 2
19 47 3
20 21 2
20 48 1
21 22 4
21 49 3
22 23 1
22 50 5
23 24 5
23 51 4
24 25 3
24 52 4
25 26 5
25 53 5
26 27 1
26 54 5
27 28 3
27 55 1
28 56 3
29 30 5
29 57 4
30 31 2
30 58 3
31 32 5
31 59 4
32 33 3
32 60 4
33 34 2
33 61 4
34 35 3
34 62 5
35 36 1
35 63 1
36 37 2
36 64 1
37 38 1
37 65 4
38 39 1
38 66 2
39 40 1
39 67 5
40 41 3
40 68 2
41 42 3
41 69 4
42 43 1
42 70 2
43 44 5
43 71 3
44 45 1
44 72 2
45 46 2
45 73 3
46 47 2
46 74 4
47 48 2
47 75 5
48 49 2
48 76 4
49 50 2
49 77 4
50 51 4
50 78 1
51 52 3
51 79 1
52 53 4
52 80 1
53 54 5
53 81 5
54 55 4
54 82 4
55 56 5
55 83 3
56 84 2
57 58 3
57 85 4
58 59 4
58 86 1
59 60 1
59 87 3
60 61 3
60 88 2
61 62 4
61 89 4
62 63 3
62 90 3
63 64 2
63 91 4
64 65 5
64 92 4
65 66 5
65 93 3
66 67 4
66 94 4
67 68 5
67 95 4
68 69 5
68 96 5
69 70 5
69 97 3
70 71 5
70 98 3
71 72 2
71 99 1
72 73 1
72 100 1
73 74 4
73 101 1
74 75 4
74 102 5
75 76 3
75 103 5
76 77 2
76 104 2
77 78 5
77 105 1
78 79 3
78 106 3
79 80 2
79 107 3
80 81 2
80 108 4
81 82 2
81 109 5
82 83 3
82 110 1
83 84 2
83 111 4
84 112 4
85 86 1
85 113 5
86 87 5
86 114 1
87 88 3
87 115 2
88 89 5
88 116 4
89 90 2
89 117 1
90 91 4
90 118 3
91 92 4
91 119 2
92 93 4
92 120 1
93 94 3
93 121 2
94 95 5
94 122 5
95 96 2
95 123 5
96 97 2
96 124 1
97 98 5
97 125 3
98 99 4
98 126 5
99 100 2
99 127 4
100 101 4
100 128 5
101 102 3
101 129 1
102 103 4
102 130 4
103 104 4
103 131 4
104 105 4
104 132 1
105 106 2
105 133 5
106 107 4
106 134 1
107 108 4
107 135 2
108 109 2
108 136 5
109 110 4
109 137 5
110 111 2
110 138 1
111 112 3
111 139 1
112 140 3
113 114 1
113 141 2
114 115 5
114 142 3
115 116 5
115 143 2
116 117 5
116 144 5
117 118 1
117 145 3
118 119 1
118 146 4
119 120 1
119 147 1
120 121 1
120 148 3
121 122 4
121 149 4
122 123 5
122 150 5
123 124 2
123 151 2
124 125 4
124 152 2
125 126 4
125 153 3
126 127 4
126 154 1
127 128 2
127 155 1
128 129 3
128 156 3
129 130 5
129 157 2
130 131 1
130 158 4
131 132 2
131 159 4
132 133 5
132 160 2
133 134 3
133 161 1
134 135 2
134 162 5
135 136 2
135 163 5
136 137 4
136 164 5
137 138 5
137 165 4
138 139 1
138 166 3
139 140 5
139 167 5
140 168 3
141 142 1
141 169 1
142 143 3
142 170 2
143 144 5
143 171 2
144 145 1
144 172 4
145 146 4
145 173 1
146 147 3
146 174 3
147 148 4
147 175 2
148 149 1
148 176 2
149 150 5
149 177 2
150 151 4
150 178 1
151 152 4
151 179 2
152 153 1
152 180 5
153 154 4
153 181 1
154 155 3
154 182 3
155 156 1
155 183 5
156 157 4
156 184 1
157 158 2
157 185 1
158 159 4
158 186 1
159 160 2
159 187 1
160 161 4
160 188 5
161 162 5
161 189 2
162 163 5
162 190 5
163 164 3
163 191 3
164 165 1
164 192 2
165 166 3
165 193 3
166 167 5
166 194 4
167 168 3
167 195 1
168 196 1
169 170 5
169 197 2
170 171 1
170 198 1
171 172 4
171 199 3
172 173 2
172 200 1
173 174 3
173 201 2
174 175 4
174 202 3
175 176 5
175 203 2
176 177 3
176 204 1
177 178 2
177 205 5
178 179 1
178 206 2
179 180 2
179 207 1
180 181 4
180 208 3
181 182 1
181 209 2
182 183 5
182 210 5
183 184 2
183 211 5
184 185 3
184 212 2
185 186 4
185 213 4
186 187 4
186 214 5
187 188 1
187 215 1
188 189 5
188 216 1
189 190 4
189 217 2
190 191 2
190 218 2
191 192 5
191 219 5
192 193 1
192 220 1
193 194 3
193 221 3
194 195 4
194 222 3
195 196 4
195 223 1
196 224 4
197 198 3
197 225 5
198 199 2
198 226 5
199 200 2
199 227 2
200 201 4
200 228 1
201 202 4
201 229 5
202 203 4
202 230 1
203 204 5
203 231 5
204 205 1
204 232 2
205 206 4
205 233 2
206 207 4
206 234 5
207 208 2
207 235 2
208 209 3
208 236 3
209 210 4
209 237 3
210 211 2
210 238 4
211 212 2
211 239 5
212 213 2
212 240 1
213 214 4
213 241 5
214 215 5
214 242 2
215 216 5
215 243 3
216 217 4
216 244 2
217 218 5
217 245 2
218 219 3
218 246 5
219 220 3
219 247 1
220 221 4
220 248 2
221 222 1
221 249 1
222 223 1
222 250 4
223 224 5
223 251 4
224 252 4
225 226 3
225 253 2
226 227 5
226 254 3
227 228 2
227 255 2
228 229 5
228 256 5
229 230 1
229 257 4
230 231 1
230 258 4
231 232 2
231 259 3
232 233 2
232 260 1
233 234 5
233 261 2
234 235 3
234 262 3
235 236 5
235 263 2
236 237 2
236 264 3
237 238 5
237 265 5
238 239 4
238 266 4
239 240 4
239 267 3
240 241 1
240 268 5
241 242 2
241 269 2
242 243 5
242 270 1
243 244 4
243 271 1
244 245 4
244 272 4
245 246 2
245 273 3
246 247 4
246 274 3
247 248 3
247 275 5
248 249 5
248 276 2
249 250 2
249 277 5
250 251 1
250 278 2
251 252 5
251 279 4
252 280 2
253 254 3
253 281 1
254 255 4
254 282 2
255 256 2
255 283 1
256 257 5
256 284 4
257 258 1
257 285 2
258 259 5
258 286 1
259 260 2
259 287 3
260 261 1
260 288 1
261 262 4
261 289 4
262 263 5
262 290 4
263 264 2
263 291 2
264 265 3
264 292 3
265 266 4
265 293 5
266 267 4
266 294 2
267 268 3
267 295 1
268 269 2
268 296 4
269 270 1
269 297 3
270 271 1
270 298 2
271 272 1
271 299 4
272 273 1
272 300 4
273 274 4
273 301 5
274 275 5
274 302 4
275 276 1
275 303 2
276 277 3
276 304 3
277 278 3
277 305 2
278 279 3
278 306 5
279 280 4
279 307 5
280 308 3
281 282 3
281 309 5
282 283 1
282 310 4
283 284 1
283 311 2
284 285 5
284 312 4
285 286 2
285 313 5
286 287 2
286 314 3
287 288 2
287 315 4
288 289 4
288 316 4
289 290 3
289 317 2
290 291 3
290 318 3
291 292 5
291 319 4
292 293 2
292 320 2
293 294 2
293 321 1
294 295 3
294 322 2
295 296 5
295 323 4
296 297 5
296 324 3
297 298 4
297 325 4
298 299 1
298 326 5
299 300 5
299 327 2
300 301 4
300 328 3
301 302 5
301 329 2
302 303 2
302 330 2
303 304 4
303 331 4
304 305 4
304 332 1
305 306 3
305 333 3
306 307 5
306 334 5
307 308 2
307 335 5
308 336 4
309 310 4
309 337 5
310 311 4
310 338 2
311 312 1
311 339 2
312 313 5
312 340 4
313 314 2
313 341 1
314 315 5
314 342 2
315 316 4
315 343 1
316 317 3
316 344 1
317 318 5
317 345 4
318 319 4
318 346 4
319 320 3
319 347 1
320 321 4
320 348 1
321 322 3
321 349 5
322 323 1
322 350 4
323 324 5
323 351 3
324 325 2
324 352 2
325 326 1
325 353 4
326 327 2
326 354 1
327 328 3
327 355 1
328 329 1
328 356 1
329 330 3
329 357 2
330 331 1
330 358 4
331 332 4
331 359 4
332 333 1
332 360 5
333 334 1
333 361 3
334 335 3
334 362 5
335 336 2
335 363 5
336 364 4
337 338 1
337 365 5
338 339 2
338 366 5
339 340 5
339 367 2
340 341 2
340 368 5
341 342 5
341 369 5
342 343 2
342 370 1
343 344 5
343 371 2
344 345 4
344 372 1
345 346 1
345 373 5
346 347 1
346 374 3
347 348 4
347 375 4
348 349 5
348 376 3
349 350 5
349 377 5
350 351 5
350 378 2
351 352 2
351 379 2
352 353 3
352 380 4
353 354 1
353 381 5
354 355 3
354 382 4
355 356 3
355 383 3
356 357 3
356 384 4
357 358 5
357 385 5
358 359 1
358 386 2
359 360 5
359 387 5
360 361 3
360 388 1
361 362 4
361 389 1
362 363 1
362 390 2
363 364 2
363 391 1
364 392 2
365 366 2
365 393 4
366 367 3
366 394 5
367 368 2
367 395 2
368 369 5
368 396 5
369 370 5
369 397 5
370 371 1
370 398 2
371 372 3
371 399 4
372 373 3
372 400 1
373 374 2
373 401 2
374 375 3
374 402 2
375 376 2
375 403 5
376 377 3
376 404 2
377 378 1
377 405 1
378 379 3
378 406 4
379 380 2
379 407 3
380 381 3
380 408 1
381 382 2
381 409 1
382 383 3
382 410 3
383 384 4
383 411 1
384 385 5
384 412 2
385 386 5
385 413 3
386 387 3
386 414 2
387 388 2
387 415 5
388 389 4
388 416 1
389 390 3
389 417 2
390 391 5
390 418 1
391 392 5
391 419 4
392 420 3
393 394 2
393 421 5
394 395 4
394 422 4
395 396 5
395 423 5
396 397 3
396 424 2
397 398 2
397 425 1
398 399 5
398 426 2
399 400 2
399 427 1
400 401 4
400 428 1
401 402 5
401 429 2
402 403 2
402 430 2
403 404 3
403 431 3
404 405 2
404 432 1
405 406 1
405 433 4
406 407 4
406 434 1
407 408 5
407 435 4
408 409 3
408 436 2
409 410 4
409 437 5
410 411 2
410 438 2
411 412 4
411 439 4
412 413 4
412 440 3
413 414 1
413 441 5
414 415 3
414 442 5
415 416 3
415 443 4
416 417 3
416 444 3
417 418 5
417 445 4
418 419 3
418 446 2
419 420 2
419 447 4
420 448 2
421 422 4
421 449 2
422 423 1
422 450 1
423 424 3
423 451 5
424 425 1
424 452 2
425 426 2
425 453 2
426 427 5
426 454 3
427 428 5
427 455 1
428 429 2
428 456 4
429 430 2
429 457 1
430 431 2
430 458 5
431 432 3
431 459 2
432 433 1
432 460 1
433 434 5
433 461 5
434 435 1
434 462 4
435 436 5
435 463 5
436 437 3
436 464 4
437 438 3
437 465 5
438 439 1
438 466 2
439 440 3
439 467 1
440 441 3
440 468 3
441 442 3
441 469 2
442 443 2
442 470 4
443 444 5
443 471 1
444 445 3
444 472 4
445 446 3
445 473 1
446 447 4
446 474 4
447 448 3
447 475 1
448 476 1
449 450 4
449 477 4
450 451 3
450 478 1
451 452 4
451 479 3
452 453 1
452 480 3
453 454 5
453 481 4
454 455 2
454 482 2
455 456 3
455 483 4
456 457 4
456 484 2
457 458 2
457 485 5
458 459 5
458 486 3
459 460 5
459 487 5
460 461 1
460 488 1
461 462 3
461 489 2
462 463 5
462 490 1
463 464 2
463 491 5
464 465 2
464 492 1
465 466 1
465 493 5
466 467 3
466 494 1
467 468 5
467 495 5
468 469 3
468 496 1
469 470 5
469 497 2
470 471 5
470 498 1
471 472 4
471 499 4
472 473 1
472 500 3
473 474 1
473 501 3
474 475 5
474 502 5
475 476 2
475 503 5
476 504 1
477 478 1
477 505 5
478 479 3
478 506 2
479 480 3
479 507 1
480 481 5
480 508 1
481 482 1
481 509 5
482 483 2
482 510 1
483 484 2
483 511 1
484 485 5
484 512 5
485 486 5
485 513 3
486 487 5
486 514 3
487 488 3
487 515 5
488 489 1
488 516 1
489 490 4
489 517 2
490 491 2
490 518 2
491 492 4
491 519 1
492 493 2
492 520 4
493 494 1
493 521 5
494 495 1
494 522 1
495 496 5
495 523 4
496 497 1
496 524 4
497 498 4
497 525 2
498 499 3
498 526 5
499 500 3
499 527 2
500 501 4
500 528 3
501 502 2
501 529 3
502 503 5
502 530 4
503 504 1
503 531 3
504 532 4
505 506 4
505 533 1
506 507 4
506 534 4
507 508 5
507 535 3
508 509 2
508 536 5
509 510 2
509 537 2
510 511 2
510 538 5
511 512 2
511 539 4
512 513 1
512 540 5
513 514 3
513 541 3
514 515 5
514 542 3
515 516 3
515 543 4
516 517 3
516 544 4
517 518 5
517 545 2
518 519 4
518 546 1
519 520 5
519 547 2
520 521 5
520 548 4
521 522 5
521 549 1
522 523 4
522 550 2
523 524 3
523 551 4
524 525 4
524 552 4
525 526 5
525 553 2
526 527 4
526 554 2
527 528 1
527 555 3
528 529 5
528 556 1
529 530 5
529 557 1
530 531 3
530 558 5
531 532 4
531 559 4
532 560 4
533 534 5
533 561 1
534 535 2
534 562 3
535 536 5
535 563 5
536 537 5
536 564 3
537 538 5
537 565 1
538 539 1
538 566 2
539 540 2
539 567 5
540 541 5
540 568 1
541 542 1
541 569 3
542 543 4
542 570 1
543 544 4
543 571 5
544 545 3
544 572 2
545 546 2
545 573 3
546 547 1
546 574 4
547 548 2
547 575 5
548 549 1
548 576 1
549 550 1
549 577 2
550 551 3
550 578 3
551 552 5
551 579 5
552 553 4
552 580 1
553 554 1
553 581 2
554 555 1
554 582 1
555 556 3
555 583 5
556 557 2
556 584 3
557 558 2
557 585 2
558 559 4
558 586 3
559 560 1
559 587 1
560 588 3
561 562 1
561 589 2
562 563 3
562 590 1
563 564 5
563 591 4
564 565 5
564 592 5
565 566 3
565 593 4
566 567 1
566 594 3
567 568 4
567 595 2
568 569 5
568 596 2
569 570 1
569 597 5
570 571 5
570 598 2
571 572 4
571 599 4
572 573 3
572 600 2
573 574 4
573 601 3
574 575 1
574 602 2
575 576 1
575 603 5
576 577 3
576 604 4
577 578 3
577 605 1
578 579 5
578 606 2
579 580 1
579 607 3
580 581 1
580 608 2
581 582 1
581 609 5
582 583 1
582 610 1
583 584 5
583 611 4
584 585 4
584 612 4
585 586 4
585 613 3
586 587 5
586 614 5
587 588 1
587 615 2
588 616 1
589 590 3
589 617 1
590 591 3
590 618 1
591 592 2
591 619 3
592 593 5
592 620 4
593 594 2
593 621 3
594 595 1
594 622 2
595 596 3
595 623 5
596 597 3
596 624 1
597 598 5
597 625 5
598 599 1
598 626 4
599 600 2
599 627 4
600 601 4
600 628 2
601 602 2
601 629 2
602 603 1
602 630 3
603 604 4
603 631 1
604 605 1
604 632 4
605 606 4
605 633 4
606 607 3
606 634 2
607 608 2
607 635 2
608 609 2
608 636 5
609 610 4
609 637 2
610 611 4
610 638 1
611 612 4
611 639 5
612 613 1
612 640 5
613 614 2
613 641 4
614 615 2
614 642 1
615 616 3
615 643 2
616 644 2
617 618 5
617 645 2
618 619 3
618 646 1
619 620 4
619 647 1
620 621 2
620 648 1
621 622 2
621 649 1
622 623 4
622 650 3
623 624 2
623 651 1
624 625 1
624 652 2
625 626 1
625 653 2
626 627 4
626 654 4
627 628 4
627 655 5
628 629 5
628 656 3
629 630 3
629 657 2
630 631 1
630 658 1
631 632 1
631 659 5
632 633 1
632 660 3
633 634 2
633 661 4
634 635 4
634 662 1
635 636 2
635 663 5
636 637 4
636 664 5
637 638 4
637 665 4
638 639 1
638 666 2
639 640 2
639 667 1
640 641 4
640 668 2
641 642 4
641 669 4
642 643 1
642 670 2
643 644 1
643 671 5
644 672 2
645 646 5
645 673 3
646 647 3
646 674 5
647 648 2
647 675 3
648 649 2
648 676 5
649 650 1
649 677 3
650 651 1
650 678 4
651 652 5
651 679 2
652 653 5
652 680 4
653 654 2
653 681 1
654 655 4
654 682 4
655 656 2
655 683 2
656 657 1
656 684 3
657 658 2
657 685 3
658 659 2
658 686 4
659 660 2
659 687 3
660 661 2
660 688 1
661 662 4
661 689 1
662 663 3
662 690 4
663 664 2
663 691 3
664 665 1
664 692 2
665 666 1
665 693 5
666 667 5
666 694 1
667 668 4
667 695 4
668 669 5
668 696 2
669 670 3
669 697 1
670 671 4
670 698 3
671 672 1
671 699 5
672 700 3
673 674 2
673 701 2
674 675 1
674 702 1
675 676 5
675 703 4
676 677 5
676 704 4
677 678 5
677 705 1
678 679 2
678 706 3
679 680 1
679 707 2
680 681 5
680 708 5
681 682 3
681 709 4
682 683 4
682 710 1
683 684 2
683 711 2
684 685 5
684 712 5
685 686 5
685 713 5
686 687 4
686 714 4
687 688 2
687 715 5
688 689 4
688 716 1
689 690 1
689 717 5
690 691 3
690 718 1
691 692 3
691 719 2
692 693 2
692 720 2
693 694 1
693 721 5
694 695 3
694 722 2
695 696 5
695 723 3
696 697 3
696 724 2
697 698 1
697 725 1
698 699 1
698 726 5
699 700 4
699 727 4
700 728 5
701 702 2
701 729 1
702 703 4
702 730 3
703 704 5
703 731 4
704 705 5
704 732 1
705 706 2
705 733 1
706 707 1
706 734 3
707 708 3
707 735 5
708 709 4
708 736 4
709 710 5
709 737 2
710 711 5
710 738 2
711 712 2
711 739 3
712 713 5
712 740 1
713 714 3
713 741 1
714 715 3
714 742 1
715 716 1
715 743 1
716 717 2
716 744 1
717 718 5
717 745 5
718 719 1
718 746 1
719 720 2
719 747 5
720 721 4
720 748 2
721 722 4
721 749 5
722 723 1
722 750 4
723 724 3
723 751 3
724 725 4
724 752 4
725 726 2
725 753 1
726 727 1
726 754 5
727 728 4
727 755 1
728 756 3
729 730 5
729 757 4
730 731 5
730 758 5
731 732 2
731 759 2
732 733 3
732 760 1
733 734 5
733 761 5
734 735 5
734 762 1
735 736 2
735 763 4
736 737 2
736 764 2
737 738 4
737 765 1
738 739 3
738 766 5
739 740 1
739 767 3
740 741 1
740 768 3
741 742 3
741 769 2
742 743 4
742 770 5
743 744 3
743 771 5
744 745 2
744 772 5
745 746 5
745 773 3
746 747 3
746 774 4
747 748 1
747 775 2
748 749 5
748 776 4
749 750 5
749 777 5
750 751 3
750 778 5
751 752 5
751 779 4
752 753 5
752 780 5
753 754 5
753 781 3
754 755 2
754 782 5
755 756 4
755 783 3
756 784 3
757 758 5
758 759 2
759 760 5
760 761 2
761 762 3
762 763 3
763 764 5
764 765 5
765 766 1
766 767 3
767 768 3
768 769 4
769 770 5
770 771 4
771 772 3
772 773 4
773 774 4
774 775 1
775 776 4
776 777 2
777 778 3
778 779 2
779 780 4
780 781 4
781 782 2
782 783 1
783 784 2
